instances/knapsack/discrete_knapsack_uncertainty/knapsack_110_11.lp
\ Model knapsack_110_11
\ LP format - for model browsing. Use MPS format to capture full model detail.
\ Signature: 0x1c7a262dccd0e095
Minimize
  - 69 x[0] - 65 x[1] - 95 x[2] - 99 x[3] - 80 x[4] - 40 x[5] - 12 x[6]
   - 10 x[7] - x[8] - 37 x[9] - 46 x[10] - 94 x[11] - 10 x[12] - 25 x[13]
   - 22 x[14] - 67 x[15] - 89 x[16] - 17 x[17] - 9 x[18] - 84 x[19]
   - 96 x[20] - 90 x[21] - 23 x[22] - 11 x[23] - 4 x[24] - 29 x[25]
   - 79 x[26] - 78 x[27] - 61 x[28] - 11 x[29] - 8 x[30] - 83 x[31]
   - 15 x[32] - 58 x[33] - 34 x[34] - 36 x[35] - 24 x[36] - 14 x[37]
   - 41 x[38] - 14 x[39] - 75 x[40] - 48 x[41] - 44 x[42] - 42 x[43]
   - 81 x[44] - 86 x[45] - 71 x[46] - 59 x[47] - 51 x[48] - 48 x[49]
   - 26 x[50] - 77 x[51] - 58 x[52] - 72 x[53] - 3 x[54] - 93 x[55]
   - 69 x[56] - 55 x[57] - 55 x[58] - 70 x[59] - 27 x[60] - 41 x[61]
   - 84 x[62] - 100 x[63] - 89 x[64] - 20 x[65] - 64 x[66] - 56 x[67]
   - 55 x[68] - 76 x[69] - 4 x[70] - 98 x[71] - 80 x[72] - 84 x[73]
   - 5 x[74] - 41 x[75] - 21 x[76] - 16 x[77] - 67 x[78] - 58 x[79]
   - 82 x[80] - 65 x[81] - 84 x[82] - 33 x[83] - 64 x[84] - 23 x[85]
   - x[86] - 54 x[87] - 35 x[88] - 5 x[89] - 93 x[90] - 4 x[91] - 20 x[92]
   - 55 x[93] - 27 x[94] - 97 x[95] - 48 x[96] - 99 x[97] - 47 x[98]
   - 71 x[99] - 35 x[100] - 56 x[101] - 61 x[102] - 36 x[103] - 38 x[104]
   - 46 x[105] - 97 x[106] - 51 x[107] - 17 x[108] - 55 x[109]
Subject To
 primal_upper: 28 x[0] + 97 x[1] + 87 x[2] + 64 x[3] + 37 x[4] + 10 x[5]
   + 90 x[6] + 4 x[7] + 6 x[8] + 63 x[9] + 88 x[10] + 24 x[11] + 93 x[12]
   + 41 x[13] + 81 x[14] + 69 x[15] + 30 x[16] + 73 x[17] + 90 x[18]
   + 59 x[19] + 10 x[20] + 56 x[21] + 85 x[22] + 95 x[23] + 93 x[24]
   + 93 x[25] + 43 x[26] + 80 x[27] + 74 x[28] + 76 x[29] + 90 x[30]
   + 32 x[31] + 84 x[32] + 26 x[33] + 85 x[34] + 14 x[35] + 33 x[36]
   + 57 x[37] + 49 x[38] + 27 x[39] + 100 x[40] + 94 x[41] + 51 x[42]
   + 62 x[43] + 72 x[44] + 55 x[45] + 34 x[46] + 26 x[47] + 56 x[48]
   + 33 x[49] + 3 x[50] + 45 x[51] + 74 x[52] + 13 x[53] + 21 x[54]
   + 76 x[55] + 46 x[56] + 75 x[57] + 5 x[58] + 15 x[59] + 97 x[60]
   + 23 x[61] + 20 x[62] + 79 x[63] + 100 x[64] + 13 x[65] + 93 x[66]
   + 63 x[67] + x[68] + 54 x[69] + 2 x[70] + 90 x[71] + 7 x[72] + 12 x[73]
   + 68 x[74] + 65 x[75] + 71 x[76] + 64 x[77] + 33 x[78] + 99 x[79]
   + 78 x[80] + 74 x[81] + 27 x[82] + 6 x[83] + 50 x[84] + 14 x[85]
   + 16 x[86] + 53 x[87] + 83 x[88] + 64 x[89] + 5 x[90] + 57 x[91]
   + 13 x[92] + 40 x[93] + 13 x[94] + 22 x[95] + 62 x[96] + 89 x[97]
   + 41 x[98] + 41 x[99] + 42 x[100] + 21 x[101] + 63 x[102] + 13 x[103]
   + 58 x[104] + 35 x[105] + 84 x[106] + 3 x[107] + 51 x[108] + 30 x[109]
   + 2.8 r[0] + 9.7 r[1] + 8.7 r[2] + 6.4 r[3] + 3.7 r[4] + r[5] + 9 r[6]
   + 0.4 r[7] + 0.6 r[8] + 6.3 r[9] + 8.8 r[10] + 2.4 r[11] + 9.3 r[12]
   + 4.1 r[13] + 8.1 r[14] + 6.9 r[15] + 3 r[16] + 7.3 r[17] + 9 r[18]
   + 5.9 r[19] + r[20] + 5.6 r[21] + 8.5 r[22] + 9.5 r[23] + 9.3 r[24]
   + 9.3 r[25] + 4.3 r[26] + 8 r[27] + 7.4 r[28] + 7.6 r[29] + 9 r[30]
   + 3.2 r[31] + 8.4 r[32] + 2.6 r[33] + 8.5 r[34] + 1.4 r[35] + 3.3 r[36]
   + 5.7 r[37] + 4.9 r[38] + 2.7 r[39] + 10 r[40] + 9.4 r[41] + 5.1 r[42]
   + 6.2 r[43] + 7.2 r[44] + 5.5 r[45] + 3.4 r[46] + 2.6 r[47] + 5.6 r[48]
   + 3.3 r[49] + 0.3 r[50] + 4.5 r[51] + 7.4 r[52] + 1.3 r[53] + 2.1 r[54]
   + 7.6 r[55] + 4.6 r[56] + 7.5 r[57] + 0.5 r[58] + 1.5 r[59] + 9.7 r[60]
   + 2.3 r[61] + 2 r[62] + 7.9 r[63] + 10 r[64] + 1.3 r[65] + 9.3 r[66]
   + 6.3 r[67] + 0.1 r[68] + 5.4 r[69] + 0.2 r[70] + 9 r[71] + 0.7 r[72]
   + 1.2 r[73] + 6.8 r[74] + 6.5 r[75] + 7.1 r[76] + 6.4 r[77] + 3.3 r[78]
   + 9.9 r[79] + 7.8 r[80] + 7.4 r[81] + 2.7 r[82] + 0.6 r[83] + 5 r[84]
   + 1.4 r[85] + 1.6 r[86] + 5.3 r[87] + 8.3 r[88] + 6.4 r[89] + 0.5 r[90]
   + 5.7 r[91] + 1.3 r[92] + 4 r[93] + 1.3 r[94] + 2.2 r[95] + 6.2 r[96]
   + 8.9 r[97] + 4.1 r[98] + 4.1 r[99] + 4.2 r[100] + 2.1 r[101]
   + 6.3 r[102] + 1.3 r[103] + 5.8 r[104] + 3.5 r[105] + 8.4 r[106]
   + 0.3 r[107] + 5.1 r[108] + 3 r[109] <= 532
 primal_lower: 0.0308860176259173 x[0] + 0.4423300745239477 x[1]
   + 2.810603179986626 x[2] + 0.0593913721587812 x[3]
   + 0.6601258690756741 x[4] + 1.383504983386621 x[5]
   + 1.345222505200302 x[6] + 1.593671702512916 x[7]
   + 0.7881580258353967 x[8] + 3.942087312042879 x[9]
   + 2.054666383564195 x[10] + 1.271555668316561 x[11]
   + 3.725255414289847 x[12] + 0.6295507410603105 x[13]
   + 3.930605762958971 x[14] + 0.2969561057818372 x[15]
   + 1.107693363224206 x[16] + 1.440167594362508 x[17]
   + 1.372504432540865 x[18] + 3.204489400486282 x[19]
   + 3.136249077898332 x[20] + 1.45235569766615 x[21]
   + 3.327382048961319 x[22] + 3.009605007957522 x[23]
   + 3.583173046246833 x[24] + 2.910473476540912 x[25]
   + 0.850088823489202 x[26] + 0.9486215013017731 x[27]
   + 1.154882758209393 x[28] + 2.501899620577686 x[29]
   + 0.5270883935114297 x[30] + 2.342885172081948 x[31]
   + 1.944398059265949 x[32] + 1.919030624761784 x[33]
   + 3.239841089134626 x[34] + 0.4706012002830427 x[35]
   + 0.2949054184973679 x[36] + 2.050309081777321 x[37]
   + 3.296870279147283 x[38] + 2.049440802405227 x[39]
   + 3.713597732964051 x[40] + 1.910679008299001 x[41]
   + 3.046620745094372 x[42] + 1.593795922390854 x[43]
   + 1.673512290446879 x[44] + 3.227463051454625 x[45]
   + 2.562003430623647 x[46] + 1.688126658380751 x[47]
   + 1.207600973221243 x[48] + 2.698757620846453 x[49]
   + 3.549909503122346 x[50] + 2.880041324650207 x[51]
   + 3.516688556349796 x[52] + 2.45520174421343 x[53]
   + 1.055404483513164 x[54] + 2.124260366754395 x[55]
   + 4.012742227177717 x[56] + 0.6200015739213469 x[57]
   + 4.470212175848298 x[58] + 0.2366608693525714 x[59]
   + 1.854028971820659 x[60] + 1.271248453240958 x[61]
   + 0.2354281024835679 x[62] + 0.7248785533578905 x[63]
   + 1.544407733012286 x[64] + 0.6775782458258202 x[65]
   + 0.3219745910657782 x[66] + 1.242086078326729 x[67]
   + 2.690338129754581 x[68] + 0.8788607319352902 x[69]
   + 1.069475892640804 x[70] + 2.590730660374891 x[71]
   + 2.047616719522024 x[72] + 3.770532638163501 x[73]
   + 2.8165252695445 x[74] + 0.6790063812514942 x[75]
   + 4.502044288443836 x[76] + 2.005822547831603 x[77]
   + 1.211681412170366 x[78] + 2.653539594054924 x[79]
   + 4.125188333136261 x[80] + 4.12725603291086 x[81]
   + 2.705012311149375 x[82] + 1.072904549099388 x[83]
   + 3.628409293786281 x[84] + 0.6541345039449371 x[85]
   + 3.669728482365101 x[86] + 3.723684293767628 x[87]
   + 4.015323568422986 x[88] + 2.685503016362579 x[89]
   + 3.061969162098538 x[90] + 4.541696332084172 x[91]
   + 0.6114494048305344 x[92] + 1.463903780570231 x[93]
   + 3.314851168914464 x[94] + 1.300015735768281 x[95]
   + 0.4759907423386452 x[96] + 4.287776427928629 x[97]
   + 4.430018597761982 x[98] + 2.237797902509917 x[99]
   + 3.257563611625592 x[100] + 1.920656960824448 x[101]
   + 4.227763169964017 x[102] + 1.20692742301297 x[103]
   + 2.420910690611893 x[104] + 0.3765511226987083 x[105]
   + 3.009559377158673 x[106] + 3.723994873002459 x[107]
   + 0.3712574509275323 x[108] + 2.782922894215189 x[109] + 95 u[0]
   + 64 u[1] + 78 u[2] + 95 u[3] + 64 u[4] + 5 u[5] + 21 u[6] + 83 u[7]
   + 69 u[8] + 30 u[9] + 27 u[10] + 71 u[11] + 64 u[12] + 92 u[13]
   + 84 u[14] + 40 u[15] + 37 u[16] + 80 u[17] + 61 u[18] + 54 u[19]
   + 37 u[20] + 75 u[21] + 32 u[22] + 22 u[23] + 96 u[24] + 40 u[25]
   + 70 u[26] + 71 u[27] + 29 u[28] + 7 u[29] + 9 u[30] + 91 u[31]
   + 31 u[32] + 29 u[33] + 76 u[34] + 49 u[35] + 96 u[36] + 88 u[37]
   + 40 u[38] + 38 u[39] + 3 u[40] + 61 u[41] + 50 u[42] + 17 u[43]
   + 19 u[44] + 90 u[45] + 69 u[46] + 65 u[47] + 19 u[48] + 92 u[49]
   + 30 u[50] + 88 u[51] + 61 u[52] + 20 u[53] + 44 u[54] + 75 u[55]
   + 5 u[56] + 74 u[57] + 64 u[58] + 62 u[59] + 24 u[60] + 38 u[61]
   + 87 u[62] + 74 u[63] + 15 u[64] + 12 u[65] + 44 u[66] + 18 u[67]
   + 28 u[68] + 5 u[69] + u[70] + 93 u[71] + 90 u[72] + 11 u[73] + 51 u[74]
   + 64 u[75] + 50 u[76] + 23 u[77] + 96 u[78] + 30 u[79] + 53 u[80]
   + 53 u[81] + 46 u[82] + 73 u[83] + 41 u[84] + 41 u[85] + 95 u[86]
   + 16 u[87] + 22 u[88] + 27 u[89] + 28 u[90] + 8 u[91] + 76 u[92]
   + 59 u[93] + 48 u[94] + u[95] + 17 u[96] + 32 u[97] + 4 u[98] + 20 u[99]
   + 61 u[100] + 8 u[101] + 14 u[102] + 92 u[103] + 33 u[104] + 38 u[105]
   + 95 u[106] + 74 u[107] + 14 u[108] + 13 u[109] <= 64045
 mccormick1[0]: - u[0] + r[0] <= 0
 mccormick1[1]: - u[1] + r[1] <= 0
 mccormick1[2]: - u[2] + r[2] <= 0
 mccormick1[3]: - u[3] + r[3] <= 0
 mccormick1[4]: - u[4] + r[4] <= 0
 mccormick1[5]: - u[5] + r[5] <= 0
 mccormick1[6]: - u[6] + r[6] <= 0
 mccormick1[7]: - u[7] + r[7] <= 0
 mccormick1[8]: - u[8] + r[8] <= 0
 mccormick1[9]: - u[9] + r[9] <= 0
 mccormick1[10]: - u[10] + r[10] <= 0
 mccormick1[11]: - u[11] + r[11] <= 0
 mccormick1[12]: - u[12] + r[12] <= 0
 mccormick1[13]: - u[13] + r[13] <= 0
 mccormick1[14]: - u[14] + r[14] <= 0
 mccormick1[15]: - u[15] + r[15] <= 0
 mccormick1[16]: - u[16] + r[16] <= 0
 mccormick1[17]: - u[17] + r[17] <= 0
 mccormick1[18]: - u[18] + r[18] <= 0
 mccormick1[19]: - u[19] + r[19] <= 0
 mccormick1[20]: - u[20] + r[20] <= 0
 mccormick1[21]: - u[21] + r[21] <= 0
 mccormick1[22]: - u[22] + r[22] <= 0
 mccormick1[23]: - u[23] + r[23] <= 0
 mccormick1[24]: - u[24] + r[24] <= 0
 mccormick1[25]: - u[25] + r[25] <= 0
 mccormick1[26]: - u[26] + r[26] <= 0
 mccormick1[27]: - u[27] + r[27] <= 0
 mccormick1[28]: - u[28] + r[28] <= 0
 mccormick1[29]: - u[29] + r[29] <= 0
 mccormick1[30]: - u[30] + r[30] <= 0
 mccormick1[31]: - u[31] + r[31] <= 0
 mccormick1[32]: - u[32] + r[32] <= 0
 mccormick1[33]: - u[33] + r[33] <= 0
 mccormick1[34]: - u[34] + r[34] <= 0
 mccormick1[35]: - u[35] + r[35] <= 0
 mccormick1[36]: - u[36] + r[36] <= 0
 mccormick1[37]: - u[37] + r[37] <= 0
 mccormick1[38]: - u[38] + r[38] <= 0
 mccormick1[39]: - u[39] + r[39] <= 0
 mccormick1[40]: - u[40] + r[40] <= 0
 mccormick1[41]: - u[41] + r[41] <= 0
 mccormick1[42]: - u[42] + r[42] <= 0
 mccormick1[43]: - u[43] + r[43] <= 0
 mccormick1[44]: - u[44] + r[44] <= 0
 mccormick1[45]: - u[45] + r[45] <= 0
 mccormick1[46]: - u[46] + r[46] <= 0
 mccormick1[47]: - u[47] + r[47] <= 0
 mccormick1[48]: - u[48] + r[48] <= 0
 mccormick1[49]: - u[49] + r[49] <= 0
 mccormick1[50]: - u[50] + r[50] <= 0
 mccormick1[51]: - u[51] + r[51] <= 0
 mccormick1[52]: - u[52] + r[52] <= 0
 mccormick1[53]: - u[53] + r[53] <= 0
 mccormick1[54]: - u[54] + r[54] <= 0
 mccormick1[55]: - u[55] + r[55] <= 0
 mccormick1[56]: - u[56] + r[56] <= 0
 mccormick1[57]: - u[57] + r[57] <= 0
 mccormick1[58]: - u[58] + r[58] <= 0
 mccormick1[59]: - u[59] + r[59] <= 0
 mccormick1[60]: - u[60] + r[60] <= 0
 mccormick1[61]: - u[61] + r[61] <= 0
 mccormick1[62]: - u[62] + r[62] <= 0
 mccormick1[63]: - u[63] + r[63] <= 0
 mccormick1[64]: - u[64] + r[64] <= 0
 mccormick1[65]: - u[65] + r[65] <= 0
 mccormick1[66]: - u[66] + r[66] <= 0
 mccormick1[67]: - u[67] + r[67] <= 0
 mccormick1[68]: - u[68] + r[68] <= 0
 mccormick1[69]: - u[69] + r[69] <= 0
 mccormick1[70]: - u[70] + r[70] <= 0
 mccormick1[71]: - u[71] + r[71] <= 0
 mccormick1[72]: - u[72] + r[72] <= 0
 mccormick1[73]: - u[73] + r[73] <= 0
 mccormick1[74]: - u[74] + r[74] <= 0
 mccormick1[75]: - u[75] + r[75] <= 0
 mccormick1[76]: - u[76] + r[76] <= 0
 mccormick1[77]: - u[77] + r[77] <= 0
 mccormick1[78]: - u[78] + r[78] <= 0
 mccormick1[79]: - u[79] + r[79] <= 0
 mccormick1[80]: - u[80] + r[80] <= 0
 mccormick1[81]: - u[81] + r[81] <= 0
 mccormick1[82]: - u[82] + r[82] <= 0
 mccormick1[83]: - u[83] + r[83] <= 0
 mccormick1[84]: - u[84] + r[84] <= 0
 mccormick1[85]: - u[85] + r[85] <= 0
 mccormick1[86]: - u[86] + r[86] <= 0
 mccormick1[87]: - u[87] + r[87] <= 0
 mccormick1[88]: - u[88] + r[88] <= 0
 mccormick1[89]: - u[89] + r[89] <= 0
 mccormick1[90]: - u[90] + r[90] <= 0
 mccormick1[91]: - u[91] + r[91] <= 0
 mccormick1[92]: - u[92] + r[92] <= 0
 mccormick1[93]: - u[93] + r[93] <= 0
 mccormick1[94]: - u[94] + r[94] <= 0
 mccormick1[95]: - u[95] + r[95] <= 0
 mccormick1[96]: - u[96] + r[96] <= 0
 mccormick1[97]: - u[97] + r[97] <= 0
 mccormick1[98]: - u[98] + r[98] <= 0
 mccormick1[99]: - u[99] + r[99] <= 0
 mccormick1[100]: - u[100] + r[100] <= 0
 mccormick1[101]: - u[101] + r[101] <= 0
 mccormick1[102]: - u[102] + r[102] <= 0
 mccormick1[103]: - u[103] + r[103] <= 0
 mccormick1[104]: - u[104] + r[104] <= 0
 mccormick1[105]: - u[105] + r[105] <= 0
 mccormick1[106]: - u[106] + r[106] <= 0
 mccormick1[107]: - u[107] + r[107] <= 0
 mccormick1[108]: - u[108] + r[108] <= 0
 mccormick1[109]: - u[109] + r[109] <= 0
 mccormick2[0]: - x[0] + r[0] <= 0
 mccormick2[1]: - x[1] + r[1] <= 0
 mccormick2[2]: - x[2] + r[2] <= 0
 mccormick2[3]: - x[3] + r[3] <= 0
 mccormick2[4]: - x[4] + r[4] <= 0
 mccormick2[5]: - x[5] + r[5] <= 0
 mccormick2[6]: - x[6] + r[6] <= 0
 mccormick2[7]: - x[7] + r[7] <= 0
 mccormick2[8]: - x[8] + r[8] <= 0
 mccormick2[9]: - x[9] + r[9] <= 0
 mccormick2[10]: - x[10] + r[10] <= 0
 mccormick2[11]: - x[11] + r[11] <= 0
 mccormick2[12]: - x[12] + r[12] <= 0
 mccormick2[13]: - x[13] + r[13] <= 0
 mccormick2[14]: - x[14] + r[14] <= 0
 mccormick2[15]: - x[15] + r[15] <= 0
 mccormick2[16]: - x[16] + r[16] <= 0
 mccormick2[17]: - x[17] + r[17] <= 0
 mccormick2[18]: - x[18] + r[18] <= 0
 mccormick2[19]: - x[19] + r[19] <= 0
 mccormick2[20]: - x[20] + r[20] <= 0
 mccormick2[21]: - x[21] + r[21] <= 0
 mccormick2[22]: - x[22] + r[22] <= 0
 mccormick2[23]: - x[23] + r[23] <= 0
 mccormick2[24]: - x[24] + r[24] <= 0
 mccormick2[25]: - x[25] + r[25] <= 0
 mccormick2[26]: - x[26] + r[26] <= 0
 mccormick2[27]: - x[27] + r[27] <= 0
 mccormick2[28]: - x[28] + r[28] <= 0
 mccormick2[29]: - x[29] + r[29] <= 0
 mccormick2[30]: - x[30] + r[30] <= 0
 mccormick2[31]: - x[31] + r[31] <= 0
 mccormick2[32]: - x[32] + r[32] <= 0
 mccormick2[33]: - x[33] + r[33] <= 0
 mccormick2[34]: - x[34] + r[34] <= 0
 mccormick2[35]: - x[35] + r[35] <= 0
 mccormick2[36]: - x[36] + r[36] <= 0
 mccormick2[37]: - x[37] + r[37] <= 0
 mccormick2[38]: - x[38] + r[38] <= 0
 mccormick2[39]: - x[39] + r[39] <= 0
 mccormick2[40]: - x[40] + r[40] <= 0
 mccormick2[41]: - x[41] + r[41] <= 0
 mccormick2[42]: - x[42] + r[42] <= 0
 mccormick2[43]: - x[43] + r[43] <= 0
 mccormick2[44]: - x[44] + r[44] <= 0
 mccormick2[45]: - x[45] + r[45] <= 0
 mccormick2[46]: - x[46] + r[46] <= 0
 mccormick2[47]: - x[47] + r[47] <= 0
 mccormick2[48]: - x[48] + r[48] <= 0
 mccormick2[49]: - x[49] + r[49] <= 0
 mccormick2[50]: - x[50] + r[50] <= 0
 mccormick2[51]: - x[51] + r[51] <= 0
 mccormick2[52]: - x[52] + r[52] <= 0
 mccormick2[53]: - x[53] + r[53] <= 0
 mccormick2[54]: - x[54] + r[54] <= 0
 mccormick2[55]: - x[55] + r[55] <= 0
 mccormick2[56]: - x[56] + r[56] <= 0
 mccormick2[57]: - x[57] + r[57] <= 0
 mccormick2[58]: - x[58] + r[58] <= 0
 mccormick2[59]: - x[59] + r[59] <= 0
 mccormick2[60]: - x[60] + r[60] <= 0
 mccormick2[61]: - x[61] + r[61] <= 0
 mccormick2[62]: - x[62] + r[62] <= 0
 mccormick2[63]: - x[63] + r[63] <= 0
 mccormick2[64]: - x[64] + r[64] <= 0
 mccormick2[65]: - x[65] + r[65] <= 0
 mccormick2[66]: - x[66] + r[66] <= 0
 mccormick2[67]: - x[67] + r[67] <= 0
 mccormick2[68]: - x[68] + r[68] <= 0
 mccormick2[69]: - x[69] + r[69] <= 0
 mccormick2[70]: - x[70] + r[70] <= 0
 mccormick2[71]: - x[71] + r[71] <= 0
 mccormick2[72]: - x[72] + r[72] <= 0
 mccormick2[73]: - x[73] + r[73] <= 0
 mccormick2[74]: - x[74] + r[74] <= 0
 mccormick2[75]: - x[75] + r[75] <= 0
 mccormick2[76]: - x[76] + r[76] <= 0
 mccormick2[77]: - x[77] + r[77] <= 0
 mccormick2[78]: - x[78] + r[78] <= 0
 mccormick2[79]: - x[79] + r[79] <= 0
 mccormick2[80]: - x[80] + r[80] <= 0
 mccormick2[81]: - x[81] + r[81] <= 0
 mccormick2[82]: - x[82] + r[82] <= 0
 mccormick2[83]: - x[83] + r[83] <= 0
 mccormick2[84]: - x[84] + r[84] <= 0
 mccormick2[85]: - x[85] + r[85] <= 0
 mccormick2[86]: - x[86] + r[86] <= 0
 mccormick2[87]: - x[87] + r[87] <= 0
 mccormick2[88]: - x[88] + r[88] <= 0
 mccormick2[89]: - x[89] + r[89] <= 0
 mccormick2[90]: - x[90] + r[90] <= 0
 mccormick2[91]: - x[91] + r[91] <= 0
 mccormick2[92]: - x[92] + r[92] <= 0
 mccormick2[93]: - x[93] + r[93] <= 0
 mccormick2[94]: - x[94] + r[94] <= 0
 mccormick2[95]: - x[95] + r[95] <= 0
 mccormick2[96]: - x[96] + r[96] <= 0
 mccormick2[97]: - x[97] + r[97] <= 0
 mccormick2[98]: - x[98] + r[98] <= 0
 mccormick2[99]: - x[99] + r[99] <= 0
 mccormick2[100]: - x[100] + r[100] <= 0
 mccormick2[101]: - x[101] + r[101] <= 0
 mccormick2[102]: - x[102] + r[102] <= 0
 mccormick2[103]: - x[103] + r[103] <= 0
 mccormick2[104]: - x[104] + r[104] <= 0
 mccormick2[105]: - x[105] + r[105] <= 0
 mccormick2[106]: - x[106] + r[106] <= 0
 mccormick2[107]: - x[107] + r[107] <= 0
 mccormick2[108]: - x[108] + r[108] <= 0
 mccormick2[109]: - x[109] + r[109] <= 0
 mccormick3[0]: x[0] + u[0] - r[0] <= 1
 mccormick3[1]: x[1] + u[1] - r[1] <= 1
 mccormick3[2]: x[2] + u[2] - r[2] <= 1
 mccormick3[3]: x[3] + u[3] - r[3] <= 1
 mccormick3[4]: x[4] + u[4] - r[4] <= 1
 mccormick3[5]: x[5] + u[5] - r[5] <= 1
 mccormick3[6]: x[6] + u[6] - r[6] <= 1
 mccormick3[7]: x[7] + u[7] - r[7] <= 1
 mccormick3[8]: x[8] + u[8] - r[8] <= 1
 mccormick3[9]: x[9] + u[9] - r[9] <= 1
 mccormick3[10]: x[10] + u[10] - r[10] <= 1
 mccormick3[11]: x[11] + u[11] - r[11] <= 1
 mccormick3[12]: x[12] + u[12] - r[12] <= 1
 mccormick3[13]: x[13] + u[13] - r[13] <= 1
 mccormick3[14]: x[14] + u[14] - r[14] <= 1
 mccormick3[15]: x[15] + u[15] - r[15] <= 1
 mccormick3[16]: x[16] + u[16] - r[16] <= 1
 mccormick3[17]: x[17] + u[17] - r[17] <= 1
 mccormick3[18]: x[18] + u[18] - r[18] <= 1
 mccormick3[19]: x[19] + u[19] - r[19] <= 1
 mccormick3[20]: x[20] + u[20] - r[20] <= 1
 mccormick3[21]: x[21] + u[21] - r[21] <= 1
 mccormick3[22]: x[22] + u[22] - r[22] <= 1
 mccormick3[23]: x[23] + u[23] - r[23] <= 1
 mccormick3[24]: x[24] + u[24] - r[24] <= 1
 mccormick3[25]: x[25] + u[25] - r[25] <= 1
 mccormick3[26]: x[26] + u[26] - r[26] <= 1
 mccormick3[27]: x[27] + u[27] - r[27] <= 1
 mccormick3[28]: x[28] + u[28] - r[28] <= 1
 mccormick3[29]: x[29] + u[29] - r[29] <= 1
 mccormick3[30]: x[30] + u[30] - r[30] <= 1
 mccormick3[31]: x[31] + u[31] - r[31] <= 1
 mccormick3[32]: x[32] + u[32] - r[32] <= 1
 mccormick3[33]: x[33] + u[33] - r[33] <= 1
 mccormick3[34]: x[34] + u[34] - r[34] <= 1
 mccormick3[35]: x[35] + u[35] - r[35] <= 1
 mccormick3[36]: x[36] + u[36] - r[36] <= 1
 mccormick3[37]: x[37] + u[37] - r[37] <= 1
 mccormick3[38]: x[38] + u[38] - r[38] <= 1
 mccormick3[39]: x[39] + u[39] - r[39] <= 1
 mccormick3[40]: x[40] + u[40] - r[40] <= 1
 mccormick3[41]: x[41] + u[41] - r[41] <= 1
 mccormick3[42]: x[42] + u[42] - r[42] <= 1
 mccormick3[43]: x[43] + u[43] - r[43] <= 1
 mccormick3[44]: x[44] + u[44] - r[44] <= 1
 mccormick3[45]: x[45] + u[45] - r[45] <= 1
 mccormick3[46]: x[46] + u[46] - r[46] <= 1
 mccormick3[47]: x[47] + u[47] - r[47] <= 1
 mccormick3[48]: x[48] + u[48] - r[48] <= 1
 mccormick3[49]: x[49] + u[49] - r[49] <= 1
 mccormick3[50]: x[50] + u[50] - r[50] <= 1
 mccormick3[51]: x[51] + u[51] - r[51] <= 1
 mccormick3[52]: x[52] + u[52] - r[52] <= 1
 mccormick3[53]: x[53] + u[53] - r[53] <= 1
 mccormick3[54]: x[54] + u[54] - r[54] <= 1
 mccormick3[55]: x[55] + u[55] - r[55] <= 1
 mccormick3[56]: x[56] + u[56] - r[56] <= 1
 mccormick3[57]: x[57] + u[57] - r[57] <= 1
 mccormick3[58]: x[58] + u[58] - r[58] <= 1
 mccormick3[59]: x[59] + u[59] - r[59] <= 1
 mccormick3[60]: x[60] + u[60] - r[60] <= 1
 mccormick3[61]: x[61] + u[61] - r[61] <= 1
 mccormick3[62]: x[62] + u[62] - r[62] <= 1
 mccormick3[63]: x[63] + u[63] - r[63] <= 1
 mccormick3[64]: x[64] + u[64] - r[64] <= 1
 mccormick3[65]: x[65] + u[65] - r[65] <= 1
 mccormick3[66]: x[66] + u[66] - r[66] <= 1
 mccormick3[67]: x[67] + u[67] - r[67] <= 1
 mccormick3[68]: x[68] + u[68] - r[68] <= 1
 mccormick3[69]: x[69] + u[69] - r[69] <= 1
 mccormick3[70]: x[70] + u[70] - r[70] <= 1
 mccormick3[71]: x[71] + u[71] - r[71] <= 1
 mccormick3[72]: x[72] + u[72] - r[72] <= 1
 mccormick3[73]: x[73] + u[73] - r[73] <= 1
 mccormick3[74]: x[74] + u[74] - r[74] <= 1
 mccormick3[75]: x[75] + u[75] - r[75] <= 1
 mccormick3[76]: x[76] + u[76] - r[76] <= 1
 mccormick3[77]: x[77] + u[77] - r[77] <= 1
 mccormick3[78]: x[78] + u[78] - r[78] <= 1
 mccormick3[79]: x[79] + u[79] - r[79] <= 1
 mccormick3[80]: x[80] + u[80] - r[80] <= 1
 mccormick3[81]: x[81] + u[81] - r[81] <= 1
 mccormick3[82]: x[82] + u[82] - r[82] <= 1
 mccormick3[83]: x[83] + u[83] - r[83] <= 1
 mccormick3[84]: x[84] + u[84] - r[84] <= 1
 mccormick3[85]: x[85] + u[85] - r[85] <= 1
 mccormick3[86]: x[86] + u[86] - r[86] <= 1
 mccormick3[87]: x[87] + u[87] - r[87] <= 1
 mccormick3[88]: x[88] + u[88] - r[88] <= 1
 mccormick3[89]: x[89] + u[89] - r[89] <= 1
 mccormick3[90]: x[90] + u[90] - r[90] <= 1
 mccormick3[91]: x[91] + u[91] - r[91] <= 1
 mccormick3[92]: x[92] + u[92] - r[92] <= 1
 mccormick3[93]: x[93] + u[93] - r[93] <= 1
 mccormick3[94]: x[94] + u[94] - r[94] <= 1
 mccormick3[95]: x[95] + u[95] - r[95] <= 1
 mccormick3[96]: x[96] + u[96] - r[96] <= 1
 mccormick3[97]: x[97] + u[97] - r[97] <= 1
 mccormick3[98]: x[98] + u[98] - r[98] <= 1
 mccormick3[99]: x[99] + u[99] - r[99] <= 1
 mccormick3[100]: x[100] + u[100] - r[100] <= 1
 mccormick3[101]: x[101] + u[101] - r[101] <= 1
 mccormick3[102]: x[102] + u[102] - r[102] <= 1
 mccormick3[103]: x[103] + u[103] - r[103] <= 1
 mccormick3[104]: x[104] + u[104] - r[104] <= 1
 mccormick3[105]: x[105] + u[105] - r[105] <= 1
 mccormick3[106]: x[106] + u[106] - r[106] <= 1
 mccormick3[107]: x[107] + u[107] - r[107] <= 1
 mccormick3[108]: x[108] + u[108] - r[108] <= 1
 mccormick3[109]: x[109] + u[109] - r[109] <= 1
Bounds
Binaries
 x[0] x[1] x[2] x[3] x[4] x[5] x[6] x[7] x[8] x[9] x[10] x[11] x[12] x[13]
 x[14] x[15] x[16] x[17] x[18] x[19] x[20] x[21] x[22] x[23] x[24] x[25]
 x[26] x[27] x[28] x[29] x[30] x[31] x[32] x[33] x[34] x[35] x[36] x[37]
 x[38] x[39] x[40] x[41] x[42] x[43] x[44] x[45] x[46] x[47] x[48] x[49]
 x[50] x[51] x[52] x[53] x[54] x[55] x[56] x[57] x[58] x[59] x[60] x[61]
 x[62] x[63] x[64] x[65] x[66] x[67] x[68] x[69] x[70] x[71] x[72] x[73]
 x[74] x[75] x[76] x[77] x[78] x[79] x[80] x[81] x[82] x[83] x[84] x[85]
 x[86] x[87] x[88] x[89] x[90] x[91] x[92] x[93] x[94] x[95] x[96] x[97]
 x[98] x[99] x[100] x[101] x[102] x[103] x[104] x[105] x[106] x[107] x[108]
 x[109] u[0] u[1] u[2] u[3] u[4] u[5] u[6] u[7] u[8] u[9] u[10] u[11] u[12]
 u[13] u[14] u[15] u[16] u[17] u[18] u[19] u[20] u[21] u[22] u[23] u[24]
 u[25] u[26] u[27] u[28] u[29] u[30] u[31] u[32] u[33] u[34] u[35] u[36]
 u[37] u[38] u[39] u[40] u[41] u[42] u[43] u[44] u[45] u[46] u[47] u[48]
 u[49] u[50] u[51] u[52] u[53] u[54] u[55] u[56] u[57] u[58] u[59] u[60]
 u[61] u[62] u[63] u[64] u[65] u[66] u[67] u[68] u[69] u[70] u[71] u[72]
 u[73] u[74] u[75] u[76] u[77] u[78] u[79] u[80] u[81] u[82] u[83] u[84]
 u[85] u[86] u[87] u[88] u[89] u[90] u[91] u[92] u[93] u[94] u[95] u[96]
 u[97] u[98] u[99] u[100] u[101] u[102] u[103] u[104] u[105] u[106] u[107]
 u[108] u[109] r[0] r[1] r[2] r[3] r[4] r[5] r[6] r[7] r[8] r[9] r[10]
 r[11] r[12] r[13] r[14] r[15] r[16] r[17] r[18] r[19] r[20] r[21] r[22]
 r[23] r[24] r[25] r[26] r[27] r[28] r[29] r[30] r[31] r[32] r[33] r[34]
 r[35] r[36] r[37] r[38] r[39] r[40] r[41] r[42] r[43] r[44] r[45] r[46]
 r[47] r[48] r[49] r[50] r[51] r[52] r[53] r[54] r[55] r[56] r[57] r[58]
 r[59] r[60] r[61] r[62] r[63] r[64] r[65] r[66] r[67] r[68] r[69] r[70]
 r[71] r[72] r[73] r[74] r[75] r[76] r[77] r[78] r[79] r[80] r[81] r[82]
 r[83] r[84] r[85] r[86] r[87] r[88] r[89] r[90] r[91] r[92] r[93] r[94]
 r[95] r[96] r[97] r[98] r[99] r[100] r[101] r[102] r[103] r[104] r[105]
 r[106] r[107] r[108] r[109]
End
