instances/knapsack/discrete/knapsack_110_11.kp
80463
110
532

28 2.8 69
97 9.7 65
87 8.7 95
64 6.4 99
37 3.7 80
10 1.0 40
90 9.0 12
4 0.4 10
6 0.6 1
63 6.3 37
88 8.8 46
24 2.4 94
93 9.3 10
41 4.1 25
81 8.1 22
69 6.9 67
30 3.0 89
73 7.3 17
90 9.0 9
59 5.9 84
10 1.0 96
56 5.6 90
85 8.5 23
95 9.5 11
93 9.3 4
93 9.3 29
43 4.3 79
80 8.0 78
74 7.4 61
76 7.6 11
90 9.0 8
32 3.2 83
84 8.4 15
26 2.6 58
85 8.5 34
14 1.4 36
33 3.3 24
57 5.7 14
49 4.9 41
27 2.7 14
100 10.0 75
94 9.4 48
51 5.1 44
62 6.2 42
72 7.2 81
55 5.5 86
34 3.4 71
26 2.6 59
56 5.6 51
33 3.3 48
3 0.3 26
45 4.5 77
74 7.4 58
13 1.3 72
21 2.1 3
76 7.6 93
46 4.6 69
75 7.5 55
5 0.5 55
15 1.5 70
97 9.7 27
23 2.3 41
20 2.0 84
79 7.9 100
100 10.0 89
13 1.3 20
93 9.3 64
63 6.3 56
1 0.1 55
54 5.4 76
2 0.2 4
90 9.0 98
7 0.7 80
12 1.2 84
68 6.8 5
65 6.5 41
71 7.1 21
64 6.4 16
33 3.3 67
99 9.9 58
78 7.8 82
74 7.4 65
27 2.7 84
6 0.6 33
50 5.0 64
14 1.4 23
16 1.6 1
53 5.3 54
83 8.3 35
64 6.4 5
5 0.5 93
57 5.7 4
13 1.3 20
40 4.0 55
13 1.3 27
22 2.2 97
62 6.2 48
89 8.9 99
41 4.1 47
41 4.1 71
42 4.2 35
21 2.1 56
63 6.3 61
13 1.3 36
58 5.8 38
35 3.5 46
84 8.4 97
3 0.3 51
51 5.1 17
30 3.0 55

64045
505

[0.030886017625917327 0.44233007452394774 2.810603179986626 0.059391372158781194 0.660125869075674 1.3835049833866213 1.3452225052003017 1.5936717025129161 0.7881580258353967 3.942087312042879 2.0546663835641947 1.2715556683165612 3.725255414289847 0.6295507410603105 3.930605762958971 0.29695610578183723 1.1076933632242059 1.4401675943625083 1.3725044325408646 3.204489400486282 3.136249077898332 1.4523556976661498 3.3273820489613186 3.0096050079575223 3.5831730462468334 2.910473476540912 0.850088823489202 0.9486215013017731 1.1548827582093932 2.5018996205776856 0.5270883935114297 2.3428851720819477 1.9443980592659489 1.919030624761784 3.239841089134626 0.4706012002830427 0.2949054184973679 2.0503090817773213 3.296870279147283 2.049440802405227 3.713597732964051 1.9106790082990006 3.0466207450943723 1.593795922390854 1.6735122904468789 3.227463051454625 2.562003430623647 1.6881266583807513 1.2076009732212432 2.698757620846453 3.549909503122346 2.8800413246502066 3.5166885563497963 2.4552017442134297 1.0554044835131637 2.1242603667543953 4.012742227177717 0.6200015739213469 4.470212175848298 0.23666086935257138 1.8540289718206586 1.2712484532409576 0.2354281024835679 0.7248785533578905 1.5444077330122856 0.6775782458258202 0.3219745910657782 1.242086078326729 2.690338129754581 0.8788607319352902 1.0694758926408043 2.5907306603748914 2.0476167195220243 3.770532638163501 2.8165252695445004 0.6790063812514942 4.502044288443836 2.0058225478316025 1.2116814121703663 2.653539594054924 4.125188333136261 4.12725603291086 2.7050123111493747 1.0729045490993883 3.628409293786281 0.6541345039449371 3.669728482365101 3.7236842937676284 4.015323568422986 2.6855030163625786 3.0619691620985376 4.541696332084172 0.6114494048305344 1.4639037805702306 3.314851168914464 1.300015735768281 0.47599074233864525 4.2877764279286295 4.430018597761982 2.2377979025099166 3.257563611625592 1.9206569608244484 4.227763169964017 1.2069274230129698 2.420910690611893 0.37655112269870833 3.0095593771586735 3.7239948730024595 0.37125745092753226 2.782922894215189]

[95 64 78 95 64 5 21 83 69 30 27 71 64 92 84 40 37 80 61 54 37 75 32 22 96 40 70 71 29 7 9 91 31 29 76 49 96 88 40 38 3 61 50 17 19 90 69 65 19 92 30 88 61 20 44 75 5 74 64 62 24 38 87 74 15 12 44 18 28 5 1 93 90 11 51 64 50 23 96 30 53 53 46 73 41 41 95 16 22 27 28 8 76 59 48 1 17 32 4 20 61 8 14 92 33 38 95 74 14 13]
